 &control
    calculation='scf'
    restart_mode='from_scratch',
    tstress = .true.
    tprnfor = .true.
    prefix='alas',
    pseudo_dir = '/home/cgduan/fyw/vaspwork/BaPd2As2/I4mmm/pwscf-pbe/lambda/example',
    outdir='./tmp'
 /
 &system
    ibrav=  2, celldm(1) =10.50, nat=  2, ntyp= 2,
    ecutwfc =16.0
 /
 &electrons
    conv_thr =  1.0d-8
    mixing_beta = 0.7
 /
ATOMIC_SPECIES
 Al  26.98  Al.pz-n-rrkjus_psl.1.0.0.UPF
 As  74.92  As.pz-n-rrkjus_psl.1.0.0.UPF
ATOMIC_POSITIONS (alat)
 Al 0.00 0.00 0.00
 As 0.25 0.25 0.25
K_POINTS
 2
 0.25 0.25 0.25 1.0
 0.25 0.25 0.75 3.0
