 &input
   fildyn='alas.dyn', zasr='simple', flfrc='alas444.fc'
 /
